100
[20,21,22,23,24,25,26,27,28,29,30,31,32,33,34,35,36,37,38,39,40,41,42,43,44,45,46,47,48,49,50,51,52,53,54,55,56,57,58,59,60,61,62,63,64,65,66,67,68,69,70,71,72,73,74,75,76,77,78,79,80]
[4,2,5,8,5,9,8,9,7,12,4,9,5,3,10,7,5,5,9,8,8,9,5,9,8,6,10,6,5,4,7,6,5,7,8,4,3,4,5,7,4,7,6,7,9,2,6,5,6,7,6,6,9,3,8,10,14,2,7,5,11]
